(declare-const oldx_init Int)
(declare-const x_init Int)
(declare-const c_0 Int)
(declare-const c_1 Int)
(declare-const c_2 Int)
(declare-const c_3 Int)
(declare-const c_4 Int)
(declare-const c_5 Int)
(declare-const c_6 Int)
(declare-const c_7 Int)
(declare-const c_8 Int)
(declare-const c_9 Int)
(declare-const c_10 Int)
(declare-const c_11 Int)
(declare-const c_12 Int)
(declare-const c_13 Int)
(declare-const c_14 Int)
(declare-const c_15 Int)
(declare-const c_16 Int)
(assert (< c_2 0))
(assert (and (>= (+ (* 1 c_3 ) (* (- 1) oldx_init ) ) 0) (>= (+ (* (- 1) c_3 ) (* 1 oldx_init ) ) 0) (>= (+ (* 1 c_4 ) (* (- 1) x_init ) ) 0) (>= (+ (* (- 1) c_4 ) (* 1 x_init ) ) 0) ))
(assert (forall ((oldx Real) (x Real) (_r_0 Real) ) (=> (and (>= (+ (* (- 1) 1) (* (- 1) c_5 ) (* (- 1) c_6 oldx ) (* (- 1) c_7 x ) ) 0) (>= (+ (* 1 c_3 ) (* (- 1) oldx ) ) 0) (>= (+ (* (- 1) c_3 ) (* 1 oldx ) ) 0) (>= (+ (* 1 c_4 ) (* (- 1) x ) ) 0) (>= (+ (* (- 1) c_4 ) (* 1 x ) ) 0) ) (>= (+ (* 1 c_11 ) (* 1 c_12 oldx ) (* 1 c_13 x ) ) 0) )))
(assert (forall ((oldx Real) (x Real) (_r_0 Real) ) (=> (and (>= (+ (* (- 1) 1) (* (- 1) c_5 ) (* (- 1) c_6 oldx ) (* (- 1) c_7 x ) ) 0) (>= (+ (* 1 c_3 ) (* (- 1) oldx ) ) 0) (>= (+ (* (- 1) c_3 ) (* 1 oldx ) ) 0) (>= (+ (* 1 c_4 ) (* (- 1) x ) ) 0) (>= (+ (* (- 1) c_4 ) (* 1 x ) ) 0) ) (>= (+ (* 1 c_14 ) (* 1 c_15 oldx ) (* 1 c_16 x ) ) 0) )))
(assert (forall ((oldx Real) (x Real) (_r_0 Real) ) (=> (and (>= (+ (* (- 1) 1) (* (- 1) c_10 x ) (* (- 1) c_8 ) (* (- 1) c_9 oldx ) ) 0) (>= (+ (* 1 c_3 ) (* (- 1) oldx ) ) 0) (>= (+ (* (- 1) c_3 ) (* 1 oldx ) ) 0) (>= (+ (* 1 c_4 ) (* (- 1) x ) ) 0) (>= (+ (* (- 1) c_4 ) (* 1 x ) ) 0) ) (>= (+ (* 1 c_11 ) (* 1 c_12 oldx ) (* 1 c_13 x ) ) 0) )))
(assert (forall ((oldx Real) (x Real) (_r_0 Real) ) (=> (and (>= (+ (* (- 1) 1) (* (- 1) c_10 x ) (* (- 1) c_8 ) (* (- 1) c_9 oldx ) ) 0) (>= (+ (* 1 c_3 ) (* (- 1) oldx ) ) 0) (>= (+ (* (- 1) c_3 ) (* 1 oldx ) ) 0) (>= (+ (* 1 c_4 ) (* (- 1) x ) ) 0) (>= (+ (* (- 1) c_4 ) (* 1 x ) ) 0) ) (>= (+ (* 1 c_14 ) (* 1 c_15 oldx ) (* 1 c_16 x ) ) 0) )))
(assert (forall ((oldx Real) (x Real) (_r_0 Real) ) (=> (and (>= (+ (* (- 1) 1) (* (- 1) _r_0 c_7 ) (* (- 1) c_5 ) (* (- 1) c_6 x ) ) 0) (>= (+ (* 1 _r_0 ) (* (- 1) c_0 x ) (* (- 1) c_1 x ) ) 0) (>= (+ (* (- 1) _r_0 ) (* 1 c_0 x ) (* 1 c_1 x ) ) 0) (>= (+ (* (- 2) 1) (* 1 x ) ) 0) (>= (+ (* 1 oldx ) (* (- 2) x ) ) 0) (>= (+ (* 1 c_5 ) (* 1 c_6 oldx ) (* 1 c_7 x ) ) 0) (>= (+ (* 1 c_10 x ) (* 1 c_8 ) (* 1 c_9 oldx ) ) 0) ) (>= (+ (* 1 _r_0 c_13 ) (* 1 c_11 ) (* 1 c_12 x ) ) 0) )))
(assert (forall ((oldx Real) (x Real) (_r_0 Real) ) (=> (and (>= (+ (* (- 1) 1) (* (- 1) _r_0 c_7 ) (* (- 1) c_5 ) (* (- 1) c_6 x ) ) 0) (>= (+ (* 1 _r_0 ) (* (- 1) c_0 x ) (* (- 1) c_1 x ) ) 0) (>= (+ (* (- 1) _r_0 ) (* 1 c_0 x ) (* 1 c_1 x ) ) 0) (>= (+ (* (- 2) 1) (* 1 x ) ) 0) (>= (+ (* 1 oldx ) (* (- 2) x ) ) 0) (>= (+ (* 1 c_5 ) (* 1 c_6 oldx ) (* 1 c_7 x ) ) 0) (>= (+ (* 1 c_10 x ) (* 1 c_8 ) (* 1 c_9 oldx ) ) 0) ) (>= (+ (* 1 _r_0 c_16 ) (* 1 c_14 ) (* 1 c_15 x ) ) 0) )))
(assert (forall ((oldx Real) (x Real) (_r_0 Real) ) (=> (and (>= (+ (* (- 1) 1) (* (- 1) _r_0 c_10 ) (* (- 1) c_8 ) (* (- 1) c_9 x ) ) 0) (>= (+ (* 1 _r_0 ) (* (- 1) c_0 x ) (* (- 1) c_1 x ) ) 0) (>= (+ (* (- 1) _r_0 ) (* 1 c_0 x ) (* 1 c_1 x ) ) 0) (>= (+ (* (- 2) 1) (* 1 x ) ) 0) (>= (+ (* 1 oldx ) (* (- 2) x ) ) 0) (>= (+ (* 1 c_5 ) (* 1 c_6 oldx ) (* 1 c_7 x ) ) 0) (>= (+ (* 1 c_10 x ) (* 1 c_8 ) (* 1 c_9 oldx ) ) 0) ) (>= (+ (* 1 _r_0 c_13 ) (* 1 c_11 ) (* 1 c_12 x ) ) 0) )))
(assert (forall ((oldx Real) (x Real) (_r_0 Real) ) (=> (and (>= (+ (* (- 1) 1) (* (- 1) _r_0 c_10 ) (* (- 1) c_8 ) (* (- 1) c_9 x ) ) 0) (>= (+ (* 1 _r_0 ) (* (- 1) c_0 x ) (* (- 1) c_1 x ) ) 0) (>= (+ (* (- 1) _r_0 ) (* 1 c_0 x ) (* 1 c_1 x ) ) 0) (>= (+ (* (- 2) 1) (* 1 x ) ) 0) (>= (+ (* 1 oldx ) (* (- 2) x ) ) 0) (>= (+ (* 1 c_5 ) (* 1 c_6 oldx ) (* 1 c_7 x ) ) 0) (>= (+ (* 1 c_10 x ) (* 1 c_8 ) (* 1 c_9 oldx ) ) 0) ) (>= (+ (* 1 _r_0 c_16 ) (* 1 c_14 ) (* 1 c_15 x ) ) 0) )))
(assert (forall ((oldx Real) (x Real) (_r_0 Real) ) (=> (and (>= (+ (* (- 1) 1) (* (- 1) _r_0 c_7 ) (* (- 1) c_5 ) (* (- 1) c_6 x ) ) 0) (>= (+ (* 1 _r_0 ) (* (- 1) c_0 x ) (* (- 1) c_1 x ) ) 0) (>= (+ (* (- 1) _r_0 ) (* 1 c_0 x ) (* 1 c_1 x ) ) 0) (>= (+ (* (- 2) 1) (* 1 x ) ) 0) (>= (+ (* 1 oldx ) (* (- 2) x ) ) 0) (>= (+ (* 1 c_11 ) (* 1 c_12 oldx ) (* 1 c_13 x ) ) 0) (>= (+ (* 1 c_14 ) (* 1 c_15 oldx ) (* 1 c_16 x ) ) 0) ) (>= (+ (* 1 _r_0 c_13 ) (* 1 c_11 ) (* 1 c_12 x ) ) 0) )))
(assert (forall ((oldx Real) (x Real) (_r_0 Real) ) (=> (and (>= (+ (* (- 1) 1) (* (- 1) _r_0 c_7 ) (* (- 1) c_5 ) (* (- 1) c_6 x ) ) 0) (>= (+ (* 1 _r_0 ) (* (- 1) c_0 x ) (* (- 1) c_1 x ) ) 0) (>= (+ (* (- 1) _r_0 ) (* 1 c_0 x ) (* 1 c_1 x ) ) 0) (>= (+ (* (- 2) 1) (* 1 x ) ) 0) (>= (+ (* 1 oldx ) (* (- 2) x ) ) 0) (>= (+ (* 1 c_11 ) (* 1 c_12 oldx ) (* 1 c_13 x ) ) 0) (>= (+ (* 1 c_14 ) (* 1 c_15 oldx ) (* 1 c_16 x ) ) 0) ) (>= (+ (* 1 _r_0 c_16 ) (* 1 c_14 ) (* 1 c_15 x ) ) 0) )))
(assert (forall ((oldx Real) (x Real) (_r_0 Real) ) (=> (and (>= (+ (* (- 1) 1) (* (- 1) _r_0 c_10 ) (* (- 1) c_8 ) (* (- 1) c_9 x ) ) 0) (>= (+ (* 1 _r_0 ) (* (- 1) c_0 x ) (* (- 1) c_1 x ) ) 0) (>= (+ (* (- 1) _r_0 ) (* 1 c_0 x ) (* 1 c_1 x ) ) 0) (>= (+ (* (- 2) 1) (* 1 x ) ) 0) (>= (+ (* 1 oldx ) (* (- 2) x ) ) 0) (>= (+ (* 1 c_11 ) (* 1 c_12 oldx ) (* 1 c_13 x ) ) 0) (>= (+ (* 1 c_14 ) (* 1 c_15 oldx ) (* 1 c_16 x ) ) 0) ) (>= (+ (* 1 _r_0 c_13 ) (* 1 c_11 ) (* 1 c_12 x ) ) 0) )))
(assert (forall ((oldx Real) (x Real) (_r_0 Real) ) (=> (and (>= (+ (* (- 1) 1) (* (- 1) _r_0 c_10 ) (* (- 1) c_8 ) (* (- 1) c_9 x ) ) 0) (>= (+ (* 1 _r_0 ) (* (- 1) c_0 x ) (* (- 1) c_1 x ) ) 0) (>= (+ (* (- 1) _r_0 ) (* 1 c_0 x ) (* 1 c_1 x ) ) 0) (>= (+ (* (- 2) 1) (* 1 x ) ) 0) (>= (+ (* 1 oldx ) (* (- 2) x ) ) 0) (>= (+ (* 1 c_11 ) (* 1 c_12 oldx ) (* 1 c_13 x ) ) 0) (>= (+ (* 1 c_14 ) (* 1 c_15 oldx ) (* 1 c_16 x ) ) 0) ) (>= (+ (* 1 _r_0 c_16 ) (* 1 c_14 ) (* 1 c_15 x ) ) 0) )))
(assert (forall ((oldx Real) (x Real) (_r_0 Real) ) (=> (and (>= (+ (* 1 1) (* (- 1) x ) ) 0) (>= (+ (* 1 c_5 ) (* 1 c_6 oldx ) (* 1 c_7 x ) ) 0) (>= (+ (* 1 c_10 x ) (* 1 c_8 ) (* 1 c_9 oldx ) ) 0) ) (>= (* 1 c_2 ) 0) )))
(assert (forall ((oldx Real) (x Real) (_r_0 Real) ) (=> (and (>= (+ (* 1 1) (* (- 1) x ) ) 0) (>= (+ (* 1 c_11 ) (* 1 c_12 oldx ) (* 1 c_13 x ) ) 0) (>= (+ (* 1 c_14 ) (* 1 c_15 oldx ) (* 1 c_16 x ) ) 0) ) (>= (* 1 c_2 ) 0) )))
(assert (forall ((oldx Real) (x Real) (_r_0 Real) ) (=> (and (>= (+ (* (- 1) 1) (* (- 1) oldx ) (* 2 x ) ) 0) (>= (+ (* 1 c_5 ) (* 1 c_6 oldx ) (* 1 c_7 x ) ) 0) (>= (+ (* 1 c_10 x ) (* 1 c_8 ) (* 1 c_9 oldx ) ) 0) ) (>= (* 1 c_2 ) 0) )))
(assert (forall ((oldx Real) (x Real) (_r_0 Real) ) (=> (and (>= (+ (* (- 1) 1) (* (- 1) oldx ) (* 2 x ) ) 0) (>= (+ (* 1 c_11 ) (* 1 c_12 oldx ) (* 1 c_13 x ) ) 0) (>= (+ (* 1 c_14 ) (* 1 c_15 oldx ) (* 1 c_16 x ) ) 0) ) (>= (* 1 c_2 ) 0) )))
(check-sat)
(get-model)

